NAME : obs.obs
TIME : 2020-10-29 12:40:24
COMMENT : hello world
DIMENSION : 14
OBSTACLE_SECTION
0 98.0420 2.2177
1 95.4956 1.0081
2 93.5150 3.0242
3 91.5344 4.0323
4 89.5538 3.0242
5 89.5538 5.0403
6 95.4956 8.0645
7 97.1932 4.4355
8 95.2126 3.6290
9 91.5344 8.6694
10 86.4414 9.0726
11 87.0073 4.2339
12 79.9338 3.2258
13 80.2167 6.8548
EOF
